input_door = [| 1 , 1 |];
output_door = [| 10 , 10 |];
n = 10;
edificio = 
[| 2, 1, 0, 0, 0, 1, 0, 0, 0, 0, 
| 0, 1, 0, 1, 0, 1, 0, 1, 0, 0, 
| 0, 1, 0, 1, 0, 1, 0, 1, 0, 0, 
| 0, 1, 0, 1, 0, 1, 0, 1, 0, 0, 
| 0, 1, 0, 1, 0, 1, 0, 1, 0, 0, 
| 0, 1, 0, 1, 0, 1, 0, 1, 0, 0, 
| 0, 1, 0, 1, 0, 1, 0, 1, 0, 0, 
| 0, 1, 0, 1, 0, 1, 0, 1, 0, 0, 
| 0, 1, 0, 1, 0, 1, 0, 1, 0, 0, 
| 0, 0, 0, 1, 0, 0, 0, 1, 0, 3 |];
